p wcnf 184 276 277 
1 -86 -24 0 
1 89 -143 0 
1 -159 -170 0 
1 -147 184 0 
1 3 -38 0 
1 -175 47 0 
1 11 167 0 
1 128 -14 0 
1 93 -117 0 
1 -75 -13 0 
1 -61 161 0 
1 -174 -97 0 
1 73 89 0 
1 -126 -19 0 
1 -14 132 0 
1 -176 -184 0 
1 -153 -6 0 
1 -6 160 0 
1 75 -114 0 
1 86 -124 0 
1 -136 -89 0 
1 80 -154 0 
1 18 -98 0 
1 89 43 0 
1 81 156 0 
1 89 -174 0 
1 -69 48 0 
1 -181 63 0 
1 41 -121 0 
1 111 -81 0 
1 -91 -56 0 
1 177 64 0 
1 166 4 0 
1 -182 3 0 
1 -81 72 0 
1 38 183 0 
1 -172 -148 0 
1 50 -31 0 
1 -27 37 0 
1 -2 95 0 
1 -112 -23 0 
1 145 82 0 
1 -26 -78 0 
1 103 -136 0 
1 147 -72 0 
1 -73 87 0 
1 58 -83 0 
1 -32 -19 0 
1 -174 -161 0 
1 -148 -14 0 
1 73 120 0 
1 49 -65 0 
1 131 -134 0 
1 -123 16 0 
1 -18 -44 0 
1 1 -176 0 
1 -171 83 0 
1 180 179 0 
1 -4 47 0 
1 37 -51 0 
1 -172 76 0 
1 141 -59 0 
1 146 138 0 
1 5 -40 0 
1 85 -89 0 
1 46 -141 0 
1 85 -40 0 
1 -147 -70 0 
1 -140 -59 0 
1 -112 69 0 
1 -101 -99 0 
1 -11 -67 0 
1 169 9 0 
1 -137 -155 0 
1 12 166 0 
1 -13 180 0 
1 -39 50 0 
1 -115 89 0 
1 90 -34 0 
1 51 -80 0 
1 182 45 0 
1 -127 126 0 
1 79 61 0 
1 -103 87 0 
1 173 172 0 
1 -120 159 0 
1 -123 -147 0 
1 -71 -103 0 
1 -124 153 0 
1 47 170 0 
1 -94 -95 0 
1 -130 -5 0 
1 48 -181 0 
1 4 141 0 
1 41 4 0 
1 -13 -88 0 
1 20 -127 0 
1 -85 -7 0 
1 157 111 0 
1 -151 -180 0 
1 69 -5 0 
1 119 -165 0 
1 -29 126 0 
1 -89 -142 0 
1 -181 -158 0 
1 -125 116 0 
1 -98 61 0 
1 139 -118 0 
1 178 124 0 
1 84 -77 0 
1 -74 23 0 
1 104 94 0 
1 161 149 0 
1 27 -52 0 
1 110 165 0 
1 160 107 0 
1 -28 139 0 
1 144 11 0 
1 124 65 0 
1 84 -44 0 
1 -98 -164 0 
1 -146 162 0 
1 126 33 0 
1 -134 154 0 
1 24 153 0 
1 133 -37 0 
1 163 106 0 
1 -20 52 0 
1 81 103 0 
1 -14 -117 0 
1 -51 65 0 
1 -44 143 0 
1 -1 -16 0 
1 -169 -135 0 
1 88 62 0 
1 -72 -49 0 
1 106 -145 0 
1 12 -87 0 
1 -130 -79 0 
1 -61 32 0 
1 34 -89 0 
1 -30 65 0 
1 -160 121 0 
1 87 108 0 
1 -70 -169 0 
1 46 2 0 
1 150 145 0 
1 -171 170 0 
1 115 7 0 
1 -125 -58 0 
1 38 -146 0 
1 45 -70 0 
1 -56 -146 0 
1 -153 62 0 
1 141 9 0 
1 73 137 0 
1 19 18 0 
1 -22 -37 0 
1 108 171 0 
1 53 -127 0 
1 -81 -54 0 
1 171 149 0 
1 15 -85 0 
1 -144 -184 0 
1 -115 -172 0 
1 -32 -11 0 
1 132 -172 0 
1 108 104 0 
1 -157 95 0 
1 -57 -166 0 
1 -103 -14 0 
1 36 62 0 
1 170 -63 0 
1 -42 99 0 
1 29 42 0 
1 111 -119 0 
1 173 -50 0 
1 -113 85 0 
1 -133 46 0 
1 -155 39 0 
1 67 -66 0 
1 99 163 0 
1 112 53 0 
1 114 75 0 
1 -9 -114 0 
1 38 103 0 
1 168 67 0 
1 173 -15 0 
1 -50 2 0 
1 -142 33 0 
1 -169 31 0 
1 -73 -98 0 
1 21 -37 0 
1 29 -6 0 
1 79 128 0 
1 127 63 0 
1 118 68 0 
1 -97 19 0 
1 21 -167 0 
1 32 108 0 
1 -171 147 0 
1 76 -182 0 
1 145 13 0 
1 -82 -176 0 
1 162 56 0 
1 -44 -54 0 
1 132 174 0 
1 53 -107 0 
1 79 -175 0 
1 56 -55 0 
1 116 -139 0 
1 -13 67 0 
1 -182 49 0 
1 -34 -50 0 
1 -39 -167 0 
1 -90 -59 0 
1 -20 -17 0 
1 -76 122 0 
1 159 -51 0 
1 133 -122 0 
1 -118 18 0 
1 -69 184 0 
1 -14 -133 0 
1 -117 -103 0 
1 14 -44 0 
1 82 123 0 
1 -159 -149 0 
1 18 -140 0 
1 68 -167 0 
1 -131 19 0 
1 22 -8 0 
1 -38 97 0 
1 -17 18 0 
1 61 102 0 
1 108 -60 0 
1 54 -42 0 
1 -52 175 0 
1 147 -184 0 
1 132 146 0 
1 170 148 0 
1 21 4 0 
1 -10 56 0 
1 -149 -75 0 
1 57 5 0 
1 -50 128 0 
1 156 -5 0 
1 -173 -6 0 
1 -5 -80 0 
1 28 -82 0 
1 -29 136 0 
1 -68 -133 0 
1 164 138 0 
1 -7 -138 0 
1 -64 -13 0 
1 141 149 0 
1 1 -5 0 
1 -68 81 0 
1 -117 -156 0 
1 61 -159 0 
1 -63 35 0 
1 -113 -174 0 
1 -128 25 0 
1 63 181 0 
1 88 -102 0 
1 113 -10 0 
1 -88 111 0 
1 -12 24 0 
1 70 -102 0 
1 57 -178 0 
1 -147 169 0 
1 75 -173 0 
1 -156 149 0 
1 -98 33 0 
1 47 85 0 
1 -128 -82 0 
1 30 123 0 
